c ren 1 -> 1
c ren 2 -> 2
c ren 3 -> 3
c ren 4 -> 4
c ren 5 -> 5
c ren 6 -> 6
c ren 7 -> 7
c ren 8 -> 8
c ren 9 -> 9
c ren 10 -> 10
c ren 11 -> 11
c ren 12 -> 12
c ren 13 -> 13
c ren 14 -> 14
c ren 15 -> 15
c ren 16 -> 16
c ren 17 -> 17
c ren 18 -> 18
c ren 19 -> 19
c ren 20 -> 20
c ren 21 -> 21
c ren 22 -> 22
c ren 25 -> 23
c ren 26 -> 24
c ren 27 -> 25
c ren 28 -> 26
c ren 29 -> 27
c ren 30 -> 28
c ren 33 -> 29
c ren 34 -> 30
c ren 37 -> 31
c ren 38 -> 32
c ren 43 -> 33
c ren 44 -> 34
c ren 46 -> 35
c ren 47 -> 36
c ren 49 -> 37
c ren 52 -> 38
c ren 53 -> 39
c ren 56 -> 40
c ren 57 -> 41
c ren 63 -> 42
c ren 66 -> 43
c ren 69 -> 44
c ren 71 -> 45
c ren 75 -> 46
c ren 77 -> 47
c ren 81 -> 48
c ren 90 -> 49
c ren 136 -> 50
c ren 138 -> 51
c ren 140 -> 52
c ren 142 -> 53
c ren 161 -> 54
c ren 164 -> 55
c ren 166 -> 56
c ren 167 -> 57
c ren 168 -> 58
c ren 169 -> 59
c ren 170 -> 60
c ren 171 -> 61
c ren 172 -> 62
c ren 173 -> 63
c ren 174 -> 64
c ren 175 -> 65
c ren 176 -> 66
c ren 177 -> 67
c ren 178 -> 68
c ren 179 -> 69
c ren 180 -> 70
c ren 181 -> 71
c ren 182 -> 72
c ren 183 -> 73
c ren 184 -> 74
c ren 186 -> 75
c ren 187 -> 76
c ren 188 -> 77
c ren 189 -> 78
c ren 190 -> 79
c ren 191 -> 80
c ren 192 -> 81
c ren 194 -> 82
c ren 195 -> 83
c ren 198 -> 84
c ren 199 -> 85
c ren 201 -> 86
c ren 202 -> 87
c ren 203 -> 88
p cnf 88 360
e 23 0
a 1 2 6 7 8 11 12 13 14 15 16 17 18 19 20 21 0
e 3 4 5 9 10 22 24 25 26 27 28 29 30 31 32 33 34 35 36 37 38 39 40 41 42 43 44 45 46 47 48 49 50 51 52 53 54 55 56 57 58 59 60 61 62 63 64 65 66 67 68 69 70 71 72 73 74 75 76 77 78 79 80 81 82 83 84 85 86 87 88 0
8 -18 -81 0
6 -17 30 0
-7 18 35 0
6 17 -30 0
-6 17 30 0
-6 -17 -30 0
-12 -19 -26 0
-7 -18 -32 0
7 -8 -18 32 0
-1 2 77 0
7 -8 18 -32 0
8 18 32 0
8 -18 -32 0
-7 18 32 0
32 45 0
8 18 27 0
-1 -2 -77 0
-11 -19 -34 0
11 12 -19 34 0
1 -2 24 0
11 12 19 -34 0
1 2 -24 0
-12 19 34 0
20 52 53 0
34 45 0
7 -8 18 -27 0
13 -20 -75 0
-1 2 36 0
1 -2 36 0
-1 -2 -36 0
1 2 -36 0
13 -20 -37 0
-13 -20 -36 37 0
-13 -20 75 -77 0
8 -18 -27 0
20 36 37 0
-20 36 -37 0
13 20 37 0
37 45 0
7 -8 -18 27 0
20 75 77 0
15 -21 -39 0
-15 -21 -36 39 0
-20 -75 77 0
-7 18 27 0
21 36 39 0
-21 36 -39 0
15 21 39 0
39 45 0
-7 -18 -27 0
68 75 0
-1 -2 -63 0
-21 -74 77 0
21 74 77 0
-6 -41 0
8 18 81 0
-1 2 52 0
-14 16 -30 -32 -34 -37 -39 41 -45 0
-3 6 -9 -10 -13 16 -17 -23 -26 -27 0
4 8 18 0
7 -8 18 -81 0
1 -2 77 0
4 7 -8 -18 0
-14 -15 -30 -32 -34 -37 -39 41 -45 0
-11 -19 -33 0
-12 -19 -33 0
15 -21 -25 0
-13 16 -30 -32 -34 -37 -39 41 -45 0
-6 -17 -38 0
23 -48 0
22 25 0
13 20 46 0
-43 49 0
1 2 -77 0
-21 -25 31 0
2 22 0
-4 -7 -18 0
13 20 75 0
30 45 0
7 -8 18 -87 0
-1 2 63 0
-12 19 79 0
11 12 19 -33 0
15 21 74 0
13 -20 -46 0
22 -31 0
68 79 0
13 -20 -53 0
44 49 0
13 14 -15 17 -64 -66 -69 -71 -73 0
-14 16 17 -68 -74 -75 -79 -81 0
-12 -19 -88 0
-11 19 57 0
2 45 0
-13 -20 -52 53 0
13 -20 -62 0
-14 -15 17 -68 -74 -75 -79 -81 0
-13 16 17 -68 -74 -75 -79 -81 0
13 20 44 0
68 74 0
2 55 0
55 85 0
-11 -19 -79 0
64 -70 0
8 18 50 0
7 -8 -18 81 0
-6 -17 -85 0
7 -8 18 -35 0
8 18 40 0
-7 -18 -35 0
6 13 14 -15 -17 -22 -23 -25 -33 -35 -46 0
-11 19 26 0
-7 18 40 0
10 20 24 0
-20 43 -44 0
-15 -21 -43 47 0
-11 19 42 0
23 -54 0
-6 17 85 0
9 21 24 0
-7 -18 -81 0
-17 68 0
13 14 -15 -38 -40 -42 -44 -47 48 -49 0
13 14 16 -38 -40 -42 -44 -47 48 -49 0
-36 45 0
1 -2 43 0
-6 -48 0
68 81 0
7 -8 -18 35 0
-1 2 24 0
-11 19 34 0
-1 -2 -43 0
64 69 0
-13 -20 62 -63 0
-9 15 -21 0
13 20 69 0
11 12 19 -83 0
2 68 0
11 12 -19 83 0
8 18 73 0
11 12 19 -79 0
2 3 0
-7 18 73 0
10 13 20 0
-15 -21 66 -70 0
11 12 19 -42 0
38 49 0
8 -18 -40 0
1 2 -52 0
15 -21 -47 0
53 82 0
-7 18 81 0
3 9 0
15 21 47 0
21 25 31 0
6 17 -85 0
-10 -20 24 0
-11 19 71 0
22 33 0
21 60 63 0
8 18 59 0
1 2 -43 0
-11 -19 -83 0
13 14 16 17 -64 -66 -69 -71 -73 0
68 -77 0
-11 19 33 0
-5 -13 15 -16 17 -50 -51 -53 -82 0
7 -8 -18 87 0
15 -21 -74 0
-1 -2 -70 0
1 2 -80 0
-11 19 79 0
1 -2 70 0
11 12 19 -71 0
23 -41 0
-11 -19 -42 0
-7 18 76 0
-3 6 -9 -10 -14 -15 -17 -23 -26 -27 0
20 43 44 0
4 55 0
-6 17 38 0
-11 -19 -26 0
-17 64 0
8 -18 -73 0
-9 -21 24 0
15 -21 -66 0
55 60 0
-12 19 51 0
7 -8 18 -50 0
40 49 0
6 13 14 16 -17 -22 -23 -25 -33 -35 -46 0
2 6 13 14 15 -16 -17 20 21 -23 -76 -86 0
21 43 47 0
8 -18 -87 0
1 2 -70 0
22 35 0
-11 -19 -71 0
51 82 0
9 15 21 0
-11 19 88 0
20 69 70 0
-4 8 -18 0
47 49 0
15 21 66 0
64 73 0
21 66 70 0
-7 -18 -40 0
-7 18 87 0
64 66 0
6 17 -38 0
5 82 0
-7 -18 -73 0
3 10 0
5 21 52 0
11 12 -19 26 0
1 -2 31 0
15 21 25 0
11 12 -19 33 0
1 -2 52 0
6 13 14 15 -16 -17 20 21 -23 -67 -76 -86 0
1 -2 63 0
-12 19 71 0
20 62 63 0
-12 19 42 0
-4 -13 15 -16 -55 58 -60 -62 -83 -85 0
-7 18 59 0
6 -17 38 0
-21 -66 70 0
-11 -19 -51 0
-1 -2 -52 0
55 62 0
15 -21 -60 0
-20 52 -53 0
-3 6 -9 -10 -14 16 -17 -23 -26 -27 0
-15 -21 25 -31 0
20 78 80 0
-13 -15 17 -68 -74 -75 -79 -81 0
7 -8 -18 73 0
-21 43 -47 0
13 20 62 0
1 -2 80 0
6 -17 85 0
2 64 0
55 83 0
2 49 0
5 15 21 0
-1 -2 -31 0
-12 -19 -79 0
13 20 53 0
-20 -62 63 0
-12 19 83 0
-21 -60 63 0
-7 -18 -87 0
11 12 -19 71 0
-1 2 70 0
8 18 87 0
-4 -14 15 -16 -55 58 -60 -62 -83 -85 0
-6 -58 0
-12 19 26 0
21 80 84 0
-7 -18 -50 0
-4 7 -8 18 0
55 -63 0
1 -2 56 0
11 12 -19 42 0
50 82 0
7 -8 -18 76 0
-11 19 83 0
9 -15 -21 -24 0
-5 -14 15 -16 17 -50 -51 -53 -82 0
-6 -54 0
6 -14 15 -16 -17 -23 -28 -78 -84 -87 -88 0
13 -20 -69 0
64 71 0
-17 82 0
15 -21 -84 0
7 -8 18 -40 0
8 18 29 0
2 82 0
1 2 -31 0
2 28 0
11 12 19 -51 0
-12 -19 -71 0
13 20 78 0
-7 18 29 0
4 -7 18 0
-7 18 50 0
15 21 60 0
28 84 0
-3 6 -9 -10 -13 -15 -17 -23 -26 -27 0
-11 19 65 0
7 -8 -18 50 0
-12 19 33 0
-52 82 0
-5 15 -21 0
-13 -15 -30 -32 -34 -37 -39 41 -45 0
7 -8 -18 40 0
-11 19 51 0
7 -8 18 -73 0
23 -58 0
1 -2 72 0
6 -13 15 -16 -17 -23 -28 -78 -84 -87 -88 0
-20 -78 80 0
-6 17 61 0
3 27 0
22 46 0
-11 -19 -88 0
-1 -2 -24 0
-1 2 80 0
8 -18 -35 0
3 26 0
8 -18 -50 0
-12 -19 -34 0
15 21 84 0
-15 -21 74 -77 0
28 78 0
11 12 -19 79 0
11 12 -19 88 0
1 -2 67 0
-12 19 65 0
-12 19 57 0
6 -17 61 0
13 14 15 -16 20 21 54 -56 -57 -59 -61 0
8 18 35 0
7 -8 -18 29 0
13 14 15 -16 17 20 21 -29 -65 -72 0
11 12 -19 86 0
2 13 14 15 -16 17 20 21 -29 -65 0
-12 -19 -51 0
-11 19 86 0
-1 2 72 0
-12 19 88 0
11 12 -19 65 0
11 12 -19 57 0
-12 19 86 0
10 -13 -20 -24 0
7 -8 -18 59 0
-10 13 -20 0
-1 -2 -80 0
11 12 19 -26 0
28 88 0
28 87 0
-12 -19 -83 0
2 13 14 15 -16 20 21 54 -57 -59 -61 0
1 2 -63 0
11 12 -19 51 0
8 18 76 0
-1 2 43 0
13 -20 -78 0
-13 -20 78 -80 0
-1 2 56 0
11 12 19 -88 0
-1 2 67 0
42 49 0
20 31 46 0
28 -80 0
-12 -19 -42 0
-1 2 31 0
13 -20 -44 0
3 -24 0
